4 
5  26 41 56 
6  11 26 41 56 
7  11 26 41 56 
8  11 26 41 56 
9  11 26 41 55 
10  10 25 40 55 
11  10 25 40 55 
12  10 25 40 55 
13  10 26 41 56 
14  11 26 41 56 
15  13 28 43 58 
16  13 28 43 58 
17  13 28 43 58 
18  13 28 43 58 
19  12 26 41 56 
20  11 26 41 56 
21  11 26 41 56 
22  11 28 43 58 
23  15 
0 
